
Gurobi 10.0.1 (mac64[arm]) logging started Mon Sep 18 23:00:25 2023

Set parameter LogFile to value "scenario_returns/returns_alpha/results/M_j_a_0/mip_log.txt"
Gurobi Optimizer version 10.0.1 build v10.0.1rc0 (mac64[arm])

CPU model: Apple M1
Thread count: 8 physical cores, 8 logical processors, using up to 8 threads

Optimize a model with 5082 rows, 18879 columns and 74316 nonzeros
Model fingerprint: 0x6c96a99e
Model has 26934 general constraints
Variable types: 3 continuous, 18876 integer (1224 binary)
Coefficient statistics:
  Matrix range     [6e-02, 3e+05]
  Objective range  [9e-02, 2e+05]
  Bounds range     [1e+00, 2e+07]
  RHS range        [2e+03, 2e+04]
  GenCon rhs range [1e+00, 1e+00]
  GenCon coe range [1e+00, 1e+00]

MIP start from previous solve produced solution with objective 6.07122e+07 (1.12s)
MIP start from previous solve produced solution with objective 6.0698e+07 (1.69s)
MIP start from previous solve produced solution with objective 5.44288e+07 (1.70s)
MIP start from previous solve produced solution with objective 5.35689e+07 (1.75s)
MIP start from previous solve produced solution with objective 5.33419e+07 (2.11s)
MIP start from previous solve produced solution with objective 5.28117e+07 (2.14s)
Loaded MIP start from previous solve with objective 5.28117e+07
Processed MIP start in 2.68 seconds (3.80 work units)

Presolve removed 3432 rows and 12959 columns
Presolve time: 0.52s
Presolved: 1650 rows, 5920 columns, 23713 nonzeros
Presolved model has 4 SOS constraint(s)
Variable types: 0 continuous, 5920 integer (34 binary)

Root relaxation: objective 4.893315e+07, 6892 iterations, 0.07 seconds (0.10 work units)

    Nodes    |    Current Node    |     Objective Bounds      |     Work
 Expl Unexpl |  Obj  Depth IntInf | Incumbent    BestBd   Gap | It/Node Time

     0     0 4.8933e+07    0  526 5.2812e+07 4.8933e+07  7.34%     -    3s
     0     0 4.9090e+07    0  503 5.2812e+07 4.9090e+07  7.05%     -    3s
     0     0 4.9091e+07    0  534 5.2812e+07 4.9091e+07  7.04%     -    3s
     0     0 4.9092e+07    0  511 5.2812e+07 4.9092e+07  7.04%     -    3s
     0     0 4.9549e+07    0 1016 5.2812e+07 4.9549e+07  6.18%     -    3s
     0     0 4.9556e+07    0 1030 5.2812e+07 4.9556e+07  6.16%     -    3s
     0     0 4.9559e+07    0 1155 5.2812e+07 4.9559e+07  6.16%     -    3s
     0     0 4.9560e+07    0 1171 5.2812e+07 4.9560e+07  6.16%     -    3s
     0     0 4.9560e+07    0 1182 5.2812e+07 4.9560e+07  6.16%     -    3s
     0     0 4.9573e+07    0 1092 5.2812e+07 4.9573e+07  6.13%     -    3s
     0     0 4.9600e+07    0 1256 5.2812e+07 4.9600e+07  6.08%     -    3s
     0     0 4.9602e+07    0 1281 5.2812e+07 4.9602e+07  6.08%     -    3s
     0     0 4.9602e+07    0 1318 5.2812e+07 4.9602e+07  6.08%     -    3s
     0     0 4.9603e+07    0 1280 5.2812e+07 4.9603e+07  6.08%     -    3s
     0     0 4.9640e+07    0 1309 5.2812e+07 4.9640e+07  6.00%     -    3s
     0     0 4.9642e+07    0 1308 5.2812e+07 4.9642e+07  6.00%     -    3s
     0     0 4.9643e+07    0 1311 5.2812e+07 4.9643e+07  6.00%     -    3s
     0     0 4.9644e+07    0 1277 5.2812e+07 4.9644e+07  6.00%     -    3s
H    0     0                    5.281167e+07 4.9644e+07  6.00%     -    4s
     0     0 4.9645e+07    0 1287 5.2812e+07 4.9645e+07  6.00%     -    4s
     0     0 4.9645e+07    0 1289 5.2812e+07 4.9645e+07  6.00%     -    4s
     0     0 4.9645e+07    0 1297 5.2812e+07 4.9645e+07  6.00%     -    4s
     0     0 4.9645e+07    0 1265 5.2812e+07 4.9645e+07  6.00%     -    4s
H    0     0                    5.243508e+07 4.9645e+07  5.32%     -    4s
     0     2 4.9645e+07    0 1248 5.2435e+07 4.9645e+07  5.32%     -    4s
     7    16 5.0652e+07    3  710 5.2435e+07 5.0316e+07  4.04%   579    5s
H   84    88                    5.243508e+07 5.0336e+07  4.00%   422    5s
H   86    88                    5.227894e+07 5.0336e+07  3.72%   426    5s
H  247   166                    5.227794e+07 5.0336e+07  3.71%   313    6s
H  414   231                    5.227397e+07 5.0363e+07  3.66%   307    7s
H  694   322                    5.227397e+07 5.0476e+07  3.44%   319    8s
H  698   322                    5.227390e+07 5.0476e+07  3.44%   320    8s
H  703   322                    5.227389e+07 5.0476e+07  3.44%   322    8s
H  897   405                    5.227389e+07 5.0505e+07  3.38%   319    9s
H  910   405                    5.227102e+07 5.0505e+07  3.38%   317    9s
H  941   405                    5.227030e+07 5.0505e+07  3.38%   309    9s
H  942   405                    5.226963e+07 5.0505e+07  3.38%   309    9s
H  958   415                    5.226924e+07 5.0505e+07  3.38%   310    9s
  1069   428 5.0943e+07    8  853 5.2269e+07 5.0558e+07  3.27%   295   10s
H 1202   436                    5.226924e+07 5.0558e+07  3.27%   284   10s
  1692   758 5.1070e+07   17  541 5.2269e+07 5.0680e+07  3.04%   255   15s
H 1698   720                    5.226924e+07 5.0680e+07  3.04%   255   15s
H 2641   584                    5.226856e+07 5.1038e+07  2.35%   280   18s
H 2965   465                    5.226856e+07 5.1108e+07  2.22%   287   19s
  2982   454 5.2036e+07   21  359 5.2269e+07 5.1160e+07  2.12%   288   20s
H 3051   397                    5.226856e+07 5.1234e+07  1.98%   290   20s
  3949   245 5.1982e+07   17  584 5.2269e+07 5.1583e+07  1.31%   343   25s
H 4222   188                    5.223729e+07 5.1731e+07  0.97%   355   27s
  4609   663 5.2232e+07   68   26 5.2237e+07 5.1941e+07  0.57%   363   30s
H18285 10744                    5.223728e+07 5.1966e+07  0.52%  96.3   34s
 19709 12414 5.2233e+07  852   32 5.2237e+07 5.1966e+07  0.52%  89.5   35s
 42339 29747 5.2233e+07 2652   32 5.2237e+07 5.1966e+07  0.52%  43.3   40s
*55115  7488             243    5.223248e+07 5.1966e+07  0.51%  34.2   43s
*55772   890              60    5.223238e+07 5.2232e+07  0.00%  34.0   44s

Cutting planes:
  Gomory: 4
  Cover: 2
  Implied bound: 806
  Projected implied bound: 22
  MIR: 60
  Flow cover: 99
  Flow path: 1
  Inf proof: 9
  Relax-and-lift: 96

Explored 55833 nodes (1910401 simplex iterations) in 44.02 seconds (62.35 work units)
Thread count was 8 (of 8 available processors)

Solution count 10: 5.22324e+07 5.22325e+07 5.22373e+07 ... 5.22692e+07

Optimal solution found (tolerance 1.00e-04)
Best objective 5.223237988000e+07, best bound 5.223237357752e+07, gap 0.0000%
